RAW/XX/fspd/X-n101-k25.vrp_seed-4.out
19781	1.266	31.36
